(set-info :source |printed by MathSAT|)
(declare-fun |!{$(in_main#0)<N>}| () Int)
(declare-fun |!{$(in_main#0)<N>}.next| () Int)
(declare-fun |!{$(in_main#0)<a>}| () Int)
(declare-fun |!{$(in_main#0)<a>}.next| () Int)
(declare-fun |!{$(in_main#0)<b>}| () Int)
(declare-fun |!{$(in_main#0)<b>}.next| () Int)
(declare-fun |!{$(in_main#0)<c>}| () Int)
(declare-fun |!{$(in_main#0)<c>}.next| () Int)
(declare-fun |!{$(in_main#0)<x>}| () Int)
(declare-fun |!{$(in_main#0)<x>}.next| () Int)
(declare-fun |!{$(in_main#0)<aa.1>}| () (Array Int Int))
(declare-fun |!{$(in_main#0)<aa.1>}.next| () (Array Int Int))
(declare-fun |!{$(in_main#0)<bb.2>}| () (Array Int Int))
(declare-fun |!{$(in_main#0)<bb.2>}.next| () (Array Int Int))
(declare-fun |!{$(in_main#0)<cc.3>}| () (Array Int Int))
(declare-fun |!{$(in_main#0)<cc.3>}.next| () (Array Int Int))
(declare-fun |!{$(in_main#0)<$(in___VERIFIER_nondet_int#0)<h#<__VERIFIER_nondet_int.return>>>}| () Int)
(declare-fun |!{$(in_main#0)<$(in___VERIFIER_nondet_int#1)<h#<__VERIFIER_nondet_int.return>>>}| () Int)
(declare-fun !pc () Int)
(declare-fun !pc.next () Int)
(declare-fun |%{$(in_main#0)<x>}#1| () Int)
(declare-fun |%{$(in_main#0)<aa.1>}#1| () (Array Int Int))
(declare-fun |%{$(in_main#0)<bb.2>}#1| () (Array Int Int))
(declare-fun |%{$(in_main#0)<cc.3>}#1| () (Array Int Int))
(declare-fun |%{$(in_main#0)<c>}#2| () Int)
(declare-fun |%{$(in_main#0)<cc.3>}#2| () (Array Int Int))
(declare-fun |%{$(in_main#0)<b>}#2| () Int)
(declare-fun |%{$(in_main#0)<bb.2>}#2| () (Array Int Int))
(define-fun .def_39 () Int (! !pc :next !pc.next))
(define-fun .def_42 () Bool (! (= .def_39 2) :init true))
(define-fun .def_286 () Bool (= .def_39 30))
(define-fun .def_226 () Bool (= !pc.next 60))
(define-fun .def_289 () Bool (and .def_226 .def_286))
(define-fun .def_8 () Int (! |!{$(in_main#0)<N>}| :next |!{$(in_main#0)<N>}.next|))
(define-fun .def_87 () Bool (= .def_8 |!{$(in_main#0)<N>}.next|))
(define-fun .def_58 () Bool (= |!{$(in_main#0)<a>}.next| 0))
(define-fun .def_278 () Bool (and .def_58 .def_87))
(define-fun .def_12 () Int (! |!{$(in_main#0)<b>}| :next |!{$(in_main#0)<b>}.next|))
(define-fun .def_91 () Bool (= .def_12 |!{$(in_main#0)<b>}.next|))
(define-fun .def_279 () Bool (and .def_91 .def_278))
(define-fun .def_14 () Int (! |!{$(in_main#0)<c>}| :next |!{$(in_main#0)<c>}.next|))
(define-fun .def_93 () Bool (= .def_14 |!{$(in_main#0)<c>}.next|))
(define-fun .def_280 () Bool (and .def_93 .def_279))
(define-fun .def_16 () Int (! |!{$(in_main#0)<x>}| :next |!{$(in_main#0)<x>}.next|))
(define-fun .def_95 () Bool (= .def_16 |!{$(in_main#0)<x>}.next|))
(define-fun .def_281 () Bool (and .def_95 .def_280))
(define-fun .def_18 () (Array Int Int) (! |!{$(in_main#0)<aa.1>}| :next |!{$(in_main#0)<aa.1>}.next|))
(define-fun .def_97 () Bool (= .def_18 |!{$(in_main#0)<aa.1>}.next|))
(define-fun .def_282 () Bool (and .def_97 .def_281))
(define-fun .def_20 () (Array Int Int) (! |!{$(in_main#0)<bb.2>}| :next |!{$(in_main#0)<bb.2>}.next|))
(define-fun .def_99 () Bool (= .def_20 |!{$(in_main#0)<bb.2>}.next|))
(define-fun .def_283 () Bool (and .def_99 .def_282))
(define-fun .def_22 () (Array Int Int) (! |!{$(in_main#0)<cc.3>}| :next |!{$(in_main#0)<cc.3>}.next|))
(define-fun .def_101 () Bool (= .def_22 |!{$(in_main#0)<cc.3>}.next|))
(define-fun .def_284 () Bool (and .def_101 .def_283))
(define-fun .def_10 () Int (! |!{$(in_main#0)<a>}| :next |!{$(in_main#0)<a>}.next|))
(define-fun .def_184 () Bool (<= .def_8 .def_10))
(define-fun .def_285 () Bool (and .def_184 .def_284))
(define-fun .def_290 () Bool (and .def_285 .def_289))
(define-fun .def_73 () Bool (= !pc.next 30))
(define-fun .def_287 () Bool (and .def_73 .def_286))
(define-fun .def_269 () Bool (<= 0 |!{$(in_main#0)<$(in___VERIFIER_nondet_int#1)<h#<__VERIFIER_nondet_int.return>>>}|))
(define-fun .def_272 () Bool (not .def_269))
(define-fun .def_242 () Bool (= .def_12 |%{$(in_main#0)<b>}#2|))
(define-fun .def_273 () Bool (and .def_242 .def_272))
(define-fun .def_250 () Bool (= .def_20 |%{$(in_main#0)<bb.2>}#2|))
(define-fun .def_274 () Bool (and .def_250 .def_273))
(define-fun .def_243 () Int (* (- 1) |%{$(in_main#0)<b>}#2|))
(define-fun .def_244 () Int (+ .def_12 .def_243))
(define-fun .def_245 () Bool (= .def_244 (- 1)))
(define-fun .def_270 () Bool (and .def_245 .def_269))
(define-fun .def_267 () (Array Int Int) (store .def_20 .def_12 |!{$(in_main#0)<$(in___VERIFIER_nondet_int#1)<h#<__VERIFIER_nondet_int.return>>>}|))
(define-fun .def_268 () Bool (= |%{$(in_main#0)<bb.2>}#2| .def_267))
(define-fun .def_271 () Bool (and .def_268 .def_270))
(define-fun .def_275 () Bool (or .def_271 .def_274))
(define-fun .def_262 () Bool (= |!{$(in_main#0)<bb.2>}.next| |%{$(in_main#0)<bb.2>}#2|))
(define-fun .def_233 () (Array Int Int) (store .def_18 .def_10 |!{$(in_main#0)<$(in___VERIFIER_nondet_int#1)<h#<__VERIFIER_nondet_int.return>>>}|))
(define-fun .def_260 () Bool (= |!{$(in_main#0)<aa.1>}.next| .def_233))
(define-fun .def_256 () Bool (= |!{$(in_main#0)<b>}.next| |%{$(in_main#0)<b>}#2|))
(define-fun .def_209 () Int (* (- 1) |!{$(in_main#0)<a>}.next|))
(define-fun .def_210 () Int (+ .def_10 .def_209))
(define-fun .def_211 () Bool (= .def_210 (- 1)))
(define-fun .def_212 () Bool (and .def_87 .def_211))
(define-fun .def_257 () Bool (and .def_212 .def_256))
(define-fun .def_258 () Bool (and .def_93 .def_257))
(define-fun .def_259 () Bool (and .def_95 .def_258))
(define-fun .def_261 () Bool (and .def_259 .def_260))
(define-fun .def_263 () Bool (and .def_261 .def_262))
(define-fun .def_264 () Bool (and .def_101 .def_263))
(define-fun .def_276 () Bool (and .def_264 .def_275))
(define-fun .def_185 () Bool (not .def_184))
(define-fun .def_277 () Bool (and .def_185 .def_276))
(define-fun .def_288 () Bool (and .def_277 .def_287))
(define-fun .def_291 () Bool (or .def_288 .def_290))
(define-fun .def_225 () Bool (= .def_39 60))
(define-fun .def_174 () Bool (= !pc.next 83))
(define-fun .def_229 () Bool (and .def_174 .def_225))
(define-fun .def_162 () Bool (= |!{$(in_main#0)<x>}.next| 0))
(define-fun .def_89 () Bool (= .def_10 |!{$(in_main#0)<a>}.next|))
(define-fun .def_104 () Bool (and .def_87 .def_89))
(define-fun .def_105 () Bool (and .def_91 .def_104))
(define-fun .def_106 () Bool (and .def_93 .def_105))
(define-fun .def_163 () Bool (and .def_106 .def_162))
(define-fun .def_164 () Bool (and .def_97 .def_163))
(define-fun .def_165 () Bool (and .def_99 .def_164))
(define-fun .def_166 () Bool (and .def_101 .def_165))
(define-fun .def_223 () Bool (and .def_166 .def_184))
(define-fun .def_230 () Bool (and .def_223 .def_229))
(define-fun .def_227 () Bool (and .def_225 .def_226))
(define-fun .def_219 () Bool (= |!{$(in_main#0)<cc.3>}.next| |%{$(in_main#0)<cc.3>}#2|))
(define-fun .def_214 () Bool (= |!{$(in_main#0)<c>}.next| |%{$(in_main#0)<c>}#2|))
(define-fun .def_213 () Bool (and .def_91 .def_212))
(define-fun .def_215 () Bool (and .def_213 .def_214))
(define-fun .def_216 () Bool (and .def_95 .def_215))
(define-fun .def_217 () Bool (and .def_97 .def_216))
(define-fun .def_218 () Bool (and .def_99 .def_217))
(define-fun .def_220 () Bool (and .def_218 .def_219))
(define-fun .def_186 () Int (select .def_18 .def_10))
(define-fun .def_188 () (Array Int Int) (store .def_22 .def_14 .def_186))
(define-fun .def_203 () Bool (= .def_188 |%{$(in_main#0)<cc.3>}#2|))
(define-fun .def_195 () Int (* (- 1) |%{$(in_main#0)<c>}#2|))
(define-fun .def_196 () Int (+ .def_14 .def_195))
(define-fun .def_197 () Bool (= .def_196 (- 1)))
(define-fun .def_187 () Bool (<= 0 .def_186))
(define-fun .def_199 () Bool (and .def_187 .def_197))
(define-fun .def_205 () Bool (and .def_199 .def_203))
(define-fun .def_202 () Bool (= .def_22 |%{$(in_main#0)<cc.3>}#2|))
(define-fun .def_194 () Bool (= .def_14 |%{$(in_main#0)<c>}#2|))
(define-fun .def_190 () Bool (not .def_187))
(define-fun .def_198 () Bool (and .def_190 .def_194))
(define-fun .def_204 () Bool (and .def_198 .def_202))
(define-fun .def_206 () Bool (or .def_204 .def_205))
(define-fun .def_221 () Bool (and .def_206 .def_220))
(define-fun .def_222 () Bool (and .def_185 .def_221))
(define-fun .def_228 () Bool (and .def_222 .def_227))
(define-fun .def_231 () Bool (or .def_228 .def_230))
(define-fun .def_169 () Bool (= .def_39 83))
(define-fun .def_131 () Bool (= !pc.next 115))
(define-fun .def_178 () Bool (and .def_131 .def_169))
(define-fun .def_142 () Bool (<= .def_12 .def_16))
(define-fun .def_167 () Bool (and .def_142 .def_166))
(define-fun .def_179 () Bool (and .def_167 .def_178))
(define-fun .def_175 () Bool (and .def_169 .def_174))
(define-fun .def_144 () Int (select .def_20 .def_16))
(define-fun .def_145 () Bool (<= 0 .def_144))
(define-fun .def_146 () Int (ite .def_145 1 0))
(define-fun .def_147 () Bool (= .def_146 0))
(define-fun .def_148 () Bool (not .def_147))
(define-fun .def_108 () Int (* (- 1) |!{$(in_main#0)<x>}.next|))
(define-fun .def_109 () Int (+ .def_16 .def_108))
(define-fun .def_110 () Bool (= .def_109 (- 1)))
(define-fun .def_111 () Bool (and .def_106 .def_110))
(define-fun .def_112 () Bool (and .def_97 .def_111))
(define-fun .def_113 () Bool (and .def_99 .def_112))
(define-fun .def_114 () Bool (and .def_101 .def_113))
(define-fun .def_160 () Bool (and .def_114 .def_148))
(define-fun .def_143 () Bool (not .def_142))
(define-fun .def_161 () Bool (and .def_143 .def_160))
(define-fun .def_176 () Bool (and .def_161 .def_175))
(define-fun .def_171 () Bool (= !pc.next 103))
(define-fun .def_172 () Bool (and .def_169 .def_171))
(define-fun .def_151 () Bool (and .def_87 .def_147))
(define-fun .def_152 () Bool (and .def_89 .def_151))
(define-fun .def_153 () Bool (and .def_91 .def_152))
(define-fun .def_154 () Bool (and .def_93 .def_153))
(define-fun .def_155 () Bool (and .def_95 .def_154))
(define-fun .def_156 () Bool (and .def_97 .def_155))
(define-fun .def_157 () Bool (and .def_99 .def_156))
(define-fun .def_158 () Bool (and .def_101 .def_157))
(define-fun .def_159 () Bool (and .def_143 .def_158))
(define-fun .def_173 () Bool (and .def_159 .def_172))
(define-fun .def_177 () Bool (or .def_173 .def_176))
(define-fun .def_180 () Bool (or .def_177 .def_179))
(define-fun .def_135 () Bool (= !pc.next 0))
(define-fun .def_126 () Bool (= .def_39 115))
(define-fun .def_136 () Bool (and .def_126 .def_135))
(define-fun .def_76 () Bool (<= .def_14 .def_16))
(define-fun .def_117 () Bool (and .def_76 .def_87))
(define-fun .def_118 () Bool (and .def_89 .def_117))
(define-fun .def_119 () Bool (and .def_91 .def_118))
(define-fun .def_120 () Bool (and .def_93 .def_119))
(define-fun .def_121 () Bool (and .def_95 .def_120))
(define-fun .def_122 () Bool (and .def_97 .def_121))
(define-fun .def_123 () Bool (and .def_99 .def_122))
(define-fun .def_124 () Bool (and .def_101 .def_123))
(define-fun .def_137 () Bool (and .def_124 .def_136))
(define-fun .def_132 () Bool (and .def_126 .def_131))
(define-fun .def_78 () Int (select .def_22 .def_16))
(define-fun .def_79 () Bool (<= 0 .def_78))
(define-fun .def_80 () Bool (not .def_79))
(define-fun .def_81 () Int (ite .def_80 1 0))
(define-fun .def_82 () Bool (= .def_81 0))
(define-fun .def_83 () Bool (not .def_82))
(define-fun .def_115 () Bool (and .def_83 .def_114))
(define-fun .def_77 () Bool (not .def_76))
(define-fun .def_116 () Bool (and .def_77 .def_115))
(define-fun .def_133 () Bool (and .def_116 .def_132))
(define-fun .def_128 () Bool (= !pc.next 135))
(define-fun .def_129 () Bool (and .def_126 .def_128))
(define-fun .def_88 () Bool (and .def_82 .def_87))
(define-fun .def_90 () Bool (and .def_88 .def_89))
(define-fun .def_92 () Bool (and .def_90 .def_91))
(define-fun .def_94 () Bool (and .def_92 .def_93))
(define-fun .def_96 () Bool (and .def_94 .def_95))
(define-fun .def_98 () Bool (and .def_96 .def_97))
(define-fun .def_100 () Bool (and .def_98 .def_99))
(define-fun .def_102 () Bool (and .def_100 .def_101))
(define-fun .def_103 () Bool (and .def_77 .def_102))
(define-fun .def_130 () Bool (and .def_103 .def_129))
(define-fun .def_134 () Bool (or .def_130 .def_133))
(define-fun .def_138 () Bool (or .def_134 .def_137))
(define-fun .def_74 () Bool (and .def_42 .def_73))
(define-fun .def_70 () Bool (= |!{$(in_main#0)<cc.3>}.next| |%{$(in_main#0)<cc.3>}#1|))
(define-fun .def_68 () Bool (= |!{$(in_main#0)<bb.2>}.next| |%{$(in_main#0)<bb.2>}#1|))
(define-fun .def_66 () Bool (= |!{$(in_main#0)<aa.1>}.next| |%{$(in_main#0)<aa.1>}#1|))
(define-fun .def_64 () Bool (= |!{$(in_main#0)<x>}.next| |%{$(in_main#0)<x>}#1|))
(define-fun .def_62 () Bool (= |!{$(in_main#0)<c>}.next| 0))
(define-fun .def_60 () Bool (= |!{$(in_main#0)<b>}.next| 0))
(define-fun .def_57 () Bool (= |!{$(in_main#0)<N>}.next| |!{$(in_main#0)<$(in___VERIFIER_nondet_int#0)<h#<__VERIFIER_nondet_int.return>>>}|))
(define-fun .def_59 () Bool (and .def_57 .def_58))
(define-fun .def_61 () Bool (and .def_59 .def_60))
(define-fun .def_63 () Bool (and .def_61 .def_62))
(define-fun .def_65 () Bool (and .def_63 .def_64))
(define-fun .def_67 () Bool (and .def_65 .def_66))
(define-fun .def_69 () Bool (and .def_67 .def_68))
(define-fun .def_71 () Bool (and .def_69 .def_70))
(define-fun .def_75 () Bool (and .def_71 .def_74))
(define-fun .def_139 () Bool (or .def_75 .def_138))
(define-fun .def_181 () Bool (or .def_139 .def_180))
(define-fun .def_232 () Bool (or .def_181 .def_231))
(define-fun .def_292 () Bool (! (or .def_232 .def_291) :trans true))
(define-fun .def_182 () Bool (= .def_39 103))
(define-fun .def_140 () Bool (= .def_39 135))
(define-fun .def_293 () Bool (or .def_140 .def_182))
(define-fun .def_294 () Bool (! (not .def_293) :invar-property 0 :invar-property-name ||))
(assert true)
